Optimal - objective value 182.44800000
      6 x_6                    9                   -2.58
     10 x_10                   1                       0
     22 x_22                5.06                       0
     23 x_23                4.94                       0
     26 x_26                   9                       0
     49 x_49                6.06                    -0.6
     55 x_55                4.94                       0
     64 x_64                 8.6                   -1.46
     66 x_66                 2.4                       0
     68 x_68                 1.4                       0
     70 x_70                 7.6                       0
     90 y_6                    1                    5.04
     94 y_10                   1                    7.38
    106 y_22                   1                    6.12
    107 y_23                   1                    4.39
    110 y_26                   1                    3.11
    133 y_49                   1                     4.1
    139 y_55                   1                    7.33
    148 y_64                   1                    7.64
    150 y_66                   1                    3.54
    152 y_68                   1                    7.34
    154 y_70                   1                    6.17
